300
100 100
1 70 171
2 70 78
3 70 932
4 70 683
5 70 583
6 70 579
7 69 495
8 69 411
9 69 525
10 69 524
11 69 12
12 69 707
13 69 251
14 68 303
15 68 772
16 68 239
17 68 570
18 68 232
19 67 84
20 67 366
21 67 848
22 67 158
23 66 1
24 66 633
25 66 272
26 65 571
27 65 886
28 65 57
29 65 752
30 65 379
31 65 423
32 64 183
33 64 57
34 64 109
35 64 395
36 64 215
37 64 912
38 64 83
39 63 104
40 63 290
41 63 262
42 63 944
43 63 283
44 63 504
45 63 785
46 63 257
47 63 69
48 62 490
49 62 974
50 62 602
51 62 679
52 62 996
53 62 759
54 62 288
55 62 489
56 61 141
57 61 988
58 61 428
59 61 982
60 61 820
61 60 258
62 60 79
63 60 576
64 60 814
65 60 843
66 60 193
67 60 549
68 60 544
69 60 392
70 59 320
71 59 455
72 59 615
73 59 329
74 59 113
75 59 762
76 59 113
77 58 438
78 58 826
79 58 276
80 58 19
81 58 679
82 58 833
83 58 997
84 58 285
85 58 488
86 57 735
87 57 650
88 57 121
89 57 620
90 56 263
91 56 862
92 56 0
93 56 860
94 56 357
95 55 548
96 55 881
97 55 345
98 55 564
99 55 452
100 55 66
101 55 402
102 55 566
103 55 578
104 54 449
105 54 140
106 54 392
107 54 333
108 53 448
109 53 529
110 53 874
111 53 848
112 53 758
113 53 921
114 53 971
115 52 380
116 52 823
117 52 274
118 52 180
119 52 243
120 52 372
121 51 360
122 51 554
123 51 650
124 51 145
125 51 102
126 51 355
127 50 598
128 50 168
129 50 405
130 50 575
131 48 715
132 48 443
133 48 282
134 48 351
135 48 563
136 48 668
137 47 373
138 47 898
139 47 355
140 47 212
141 47 973
142 46 763
143 46 637
144 46 22
145 46 569
146 46 74
147 46 125
148 46 897
149 46 301
150 45 965
151 45 299
152 45 403
153 44 522
154 44 971
155 44 806
156 44 981
157 44 979
158 44 577
159 43 617
160 43 307
161 43 710
162 43 415
163 43 895
164 43 953
165 42 817
166 42 491
167 42 918
168 42 126
169 42 702
170 42 149
171 41 207
172 41 834
173 41 152
174 41 603
175 41 204
176 40 214
177 40 109
178 40 499
179 39 397
180 39 377
181 39 574
182 39 568
183 39 949
184 39 252
185 38 893
186 38 642
187 38 141
188 38 362
189 38 867
190 38 606
191 38 367
192 38 688
193 38 370
194 37 75
195 37 148
196 37 117
197 37 323
198 37 493
199 36 107
200 36 776
201 36 64
202 36 408
203 36 600
204 35 668
205 35 700
206 35 99
207 35 461
208 34 776
209 34 181
210 34 280
211 34 416
212 34 354
213 34 517
214 33 245
215 33 59
216 33 809
217 33 571
218 33 53
219 33 451
220 33 465
221 33 886
222 33 664
223 33 965
224 33 531
225 33 17
226 32 454
227 32 750
228 32 512
229 32 457
230 32 853
231 32 166
232 32 473
233 31 912
234 31 231
235 31 223
236 31 561
237 31 642
238 31 118
239 30 583
240 30 553
241 30 956
242 30 433
243 30 242
244 29 631
245 29 864
246 29 99
247 29 330
248 28 295
249 28 950
250 28 160
251 28 139
252 28 624
253 28 673
254 28 582
255 27 349
256 27 259
257 27 76
258 27 200
259 26 725
260 26 603
261 26 567
262 26 784
263 25 83
264 25 937
265 25 763
266 25 979
267 25 377
268 25 737
269 25 594
270 25 195
271 25 416
272 25 177
273 25 506
274 25 260
275 25 385
276 25 607
277 24 253
278 24 959
279 24 81
280 24 879
281 24 708
282 23 374
283 23 959
284 23 436
285 23 715
286 23 955
287 23 957
288 23 807
289 22 288
290 22 918
291 22 788
292 21 143
293 21 444
294 21 888
295 21 754
296 21 480
297 20 771
298 20 935
299 20 908
300 20 646
